letting n =  10
letting blocks =  [[1, 1], [1, 2], [1, 3], [1, 4], [1, 7], [1, 10], [2, 3], [2, 7], [3, 2], [3, 5], [3, 6], [4, 2], [4, 4], [4, 6], [4, 9], [5, 3], [5, 5], [5, 7], [5, 8], [6, 1], [6, 2], [6, 4], [6, 8], [6, 9], [7, 2], [7, 5], [7, 7], [7, 9], [8, 1], [8, 8], [9, 3], [9, 6], [9, 8], [10, 1], [10, 5], [10, 6], [10, 7], [10, 8]]
